750
[76,79,81,83,88,91,94,102,104,107,109,110,115,117,118,120,121,123,124,125,126,127,128,130,135,137,138,141,143,144,147,149,153,156,160,161,166,167,168,171,173,174,179,182,183,185,186,198,200,204,213,214,215,218,222,223,224,233,234,238,240,241,243,244,255,256,259,261,262,263,268,276,278,286,287,288,295,298,299,303,304,312,316,320,321,324,325,326,327,331,334,336,340,343,344,345,346,354,355,357,361,362,363,364,365,367,368,372,375,377,378,383,385,387,388,389,390,392,394,397,400,403,405,409,412,417,418,419,422,423,431,432,433,434,440,441,443,446,448,449,453,456,457,459,462,467,468,474,475,480,481,488,494,499,504,506,513,516,520,524]
[1,1,1,1,1,1,1,1,1,1,1,1,1,1,1,1,1,1,1,1,2,1,1,1,2,1,1,1,2,1,1,1,1,1,1,1,2,1,1,1,1,1,1,1,1,1,1,3,1,1,1,2,1,2,1,1,3,2,2,2,1,2,1,2,1,2,1,1,2,2,3,1,1,1,1,1,3,1,1,1,2,1,1,1,1,1,1,1,1,1,1,1,2,1,1,3,1,1,1,1,1,3,1,1,1,1,1,1,2,1,1,1,1,1,1,1,2,1,1,2,1,1,1,1,1,1,1,1,1,2,1,1,3,1,2,1,1,1,1,1,2,1,1,1,1,1,1,1,1,1,2,2,1,1,1,1,1,1,2,2]
